
Gurobi 9.0.2 (win64) logging started Mon Oct 25 10:48:35 2021

Changed value of parameter LogFile to logs\CRVRP_10-3-7-100_4_0.LOG
   Prev:   Default: 
Changed value of parameter Seed to 280896491
   Prev: 0  Min: 0  Max: 2000000000  Default: 0
Changed value of parameter Threads to 2
   Prev: 0  Min: 0  Max: 1024  Default: 0
Changed value of parameter TimeLimit to 600.0
   Prev: inf  Min: 0.0  Max: inf  Default: inf
Changed value of parameter Symmetry to 2
   Prev: -1  Min: -1  Max: 2  Default: -1
Changed value of parameter Cuts to 2
   Prev: -1  Min: -1  Max: 3  Default: -1
Changed value of parameter PreDepRow to 1
   Prev: -1  Min: -1  Max: 1  Default: -1
Changed value of parameter ScaleFlag to 1
   Prev: -1  Min: -1  Max: 3  Default: -1
Changed value of parameter NormAdjust to 0
   Prev: -1  Min: -1  Max: 3  Default: -1
Gurobi Optimizer version 9.0.2 build v9.0.2rc0 (win64)
Optimize a model with 6903 rows, 3980 columns and 27871 nonzeros
Model fingerprint: 0xef110eee
Variable types: 72 continuous, 3908 integer (2612 binary)
Coefficient statistics:
  Matrix range     [1e-01, 1e+05]
  Objective range  [1e+00, 1e+00]
  Bounds range     [1e+00, 1e+04]
  RHS range        [1e+00, 1e+05]
Presolve removed 0 rows and 1054 columns
Presolve time: 0.00s

Explored 0 nodes (0 simplex iterations) in 0.01 seconds
Thread count was 1 (of 4 available processors)

Solution count 0

Model is infeasible
Best objective -, best bound -, gap -

IIS computed: 1 constraints, 1 bounds
IIS runtime: 0.00 seconds
Discarded solution information

Gurobi 9.0.2 (win64) logging started Fri Oct 29 14:47:24 2021

Changed value of parameter LogFile to logs\CRVRP_10-3-7-100_4_0.LOG
   Prev:   Default: 
Changed value of parameter Seed to 1504587053
   Prev: 0  Min: 0  Max: 2000000000  Default: 0
Changed value of parameter Threads to 2
   Prev: 0  Min: 0  Max: 1024  Default: 0
Changed value of parameter TimeLimit to 60.0
   Prev: inf  Min: 0.0  Max: inf  Default: inf
Changed value of parameter Symmetry to 2
   Prev: -1  Min: -1  Max: 2  Default: -1
Changed value of parameter Cuts to 2
   Prev: -1  Min: -1  Max: 3  Default: -1
Changed value of parameter PreDepRow to 1
   Prev: -1  Min: -1  Max: 1  Default: -1
Changed value of parameter ScaleFlag to 1
   Prev: -1  Min: -1  Max: 3  Default: -1
Changed value of parameter NormAdjust to 0
   Prev: -1  Min: -1  Max: 3  Default: -1
Gurobi Optimizer version 9.0.2 build v9.0.2rc0 (win64)
Optimize a model with 2815 rows, 1796 columns and 12549 nonzeros
Model fingerprint: 0x8efb823b
Variable types: 48 continuous, 1748 integer (1172 binary)
Coefficient statistics:
  Matrix range     [1e-01, 1e+06]
  Objective range  [1e+00, 1e+00]
  Bounds range     [1e+00, 1e+04]
  RHS range        [1e+00, 1e+06]
Presolve removed 1873 rows and 1077 columns
Presolve time: 0.09s
Presolved: 942 rows, 719 columns, 6039 nonzeros
Variable types: 21 continuous, 698 integer (580 binary)

Root relaxation: objective 3.207388e+03, 619 iterations, 0.02 seconds

    Nodes    |    Current Node    |     Objective Bounds      |     Work
 Expl Unexpl |  Obj  Depth IntInf | Incumbent    BestBd   Gap | It/Node Time

     0     0 3207.38758    0   26          - 3207.38758      -     -    0s
     0     0 3244.91441    0   59          - 3244.91441      -     -    0s
H    0     0                    9076.7367729 3244.91441  64.3%     -    0s
     0     0 3396.09153    0   87 9076.73677 3396.09153  62.6%     -    0s
     0     0 3557.39004    0   81 9076.73677 3557.39004  60.8%     -    0s
     0     0 3557.43402    0   82 9076.73677 3557.43402  60.8%     -    0s
     0     0 3586.47949    0   88 9076.73677 3586.47949  60.5%     -    0s
     0     0 3586.49967    0   87 9076.73677 3586.49967  60.5%     -    0s
     0     0 3596.60727    0   96 9076.73677 3596.60727  60.4%     -    1s
     0     0 3596.81252    0  103 9076.73677 3596.81252  60.4%     -    1s
     0     0 3596.81291    0  103 9076.73677 3596.81291  60.4%     -    1s
     0     0 3612.74669    0   89 9076.73677 3612.74669  60.2%     -    1s
     0     0 3612.90364    0   96 9076.73677 3612.90364  60.2%     -    1s
     0     0 3613.43907    0   98 9076.73677 3613.43907  60.2%     -    1s
     0     0 3613.44040    0   97 9076.73677 3613.44040  60.2%     -    1s
     0     0 3616.09040    0   86 9076.73677 3616.09040  60.2%     -    1s
     0     0 3616.38693    0   93 9076.73677 3616.38693  60.2%     -    1s
     0     0 3625.61329    0   79 9076.73677 3625.61329  60.1%     -    1s
     0     0 3628.26099    0   91 9076.73677 3628.26099  60.0%     -    1s
     0     0 3628.30444    0   89 9076.73677 3628.30444  60.0%     -    1s
     0     0 3703.87796    0   94 9076.73677 3703.87796  59.2%     -    2s
H    0     0                    8265.1301861 3703.87796  55.2%     -    2s
     0     0 3716.38099    0   91 8265.13019 3716.38099  55.0%     -    2s
     0     0 3716.38346    0   95 8265.13019 3716.38346  55.0%     -    2s
     0     0 3728.90566    0   95 8265.13019 3728.90566  54.9%     -    2s
     0     0 3735.56831    0   97 8265.13019 3735.56831  54.8%     -    2s
     0     0 3738.18263    0  103 8265.13019 3738.18263  54.8%     -    2s
     0     0 3738.18267    0  101 8265.13019 3738.18267  54.8%     -    2s
     0     0 3779.95829    0   91 8265.13019 3779.95829  54.3%     -    2s
H    0     0                    7275.6470742 3779.95829  48.0%     -    2s
     0     0 3782.70956    0   98 7275.64707 3782.70956  48.0%     -    2s
     0     0 3782.70981    0  100 7275.64707 3782.70981  48.0%     -    2s
     0     0 3783.44084    0   96 7275.64707 3783.44084  48.0%     -    3s
     0     0 3783.44103    0   96 7275.64707 3783.44103  48.0%     -    3s
     0     0 3784.00908    0  112 7275.64707 3784.00908  48.0%     -    3s
     0     0 3784.00908    0  104 7275.64707 3784.00908  48.0%     -    3s
H    0     0                    5633.7190784 3784.66633  32.8%     -    3s
     0     2 3784.66633    0  101 5633.71908 3784.66633  32.8%     -    3s
   148   146 4213.84711    4   67 5633.71908 4015.52238  28.7%  72.8    5s
H  520   426                    5620.0136653 4162.29372  25.9%  54.9    6s
   740   563 4255.02770   61  110 5620.01367 4213.84711  25.0%  53.4   10s
   941   682 4213.84712   23   89 5620.01367 4213.84711  25.0%  73.3   15s
H  956   648                    5597.3904828 4213.84711  24.7%  73.0   15s
H 1064   662                    5475.4588062 4213.84711  23.0%  74.1   16s
  1604   835 4915.14748   25   97 5475.45881 4213.84712  23.0%  77.7   20s
  2678  1298 5240.59607   51   52 5475.45881 4213.84715  23.0%  76.4   25s
H 2731  1298                    5475.4588057 4213.84715  23.0%  76.2   25s
  3921  2148     cutoff   61      5475.45881 4213.84807  23.0%  73.4   30s
  5554  2873 5317.04021   47   40 5475.45881 4213.84977  23.0%  68.9   35s
H 6346  3175                    5423.2975667 4214.76138  22.3%  71.1   39s
  6409  3300 4215.08917   40   87 5423.29757 4215.08586  22.3%  71.3   40s
  7249  3680 4215.09251   36   81 5423.29757 4215.09251  22.3%  76.1   45s
H 7373  3680                    5423.2713238 4215.09251  22.3%  76.3   45s
  8143  4141 4748.79373   55   67 5423.27132 4215.09251  22.3%  78.9   51s
  9405  4804 5343.78450   45   59 5423.27132 4215.09251  22.3%  80.0   56s
 10195  5190 4674.38681   49   69 5423.27132 4215.09251  22.3%  80.8   60s

Cutting planes:
  Gomory: 9
  Cover: 8
  Implied bound: 7
  MIR: 27
  Flow cover: 34
  GUB cover: 1
  Zero half: 22
  RLT: 2
  Relax-and-lift: 8

Explored 10483 nodes (856627 simplex iterations) in 60.01 seconds
Thread count was 2 (of 4 available processors)

Solution count 10: 5423.27 5423.3 5475.46 ... 9076.74

Time limit reached
Best objective 5.423271323777e+03, best bound 4.215092517788e+03, gap 22.2777%
Discarded solution information
